808,279
600,246
611,309
600,566
786,261
823,452
515,919
822,212
570,64
148,490
611,503
626,577
415,364
598,662
803,166
453,480
1095,341
635,264
658,554
921,406
829,258
533,383
667,318
753,458
563,424
321,46
709,229
171,406
606,880
